

Minimize
		
2 squanderTet + 0 squanderQuad

ST

x12 : 2 dihTet + 4 dihQuad - 6.2831853071795864769252867666 c = 0


x10 : squanderTet - volTet + 0.42755  solTet = 0
x11 : squanderQuad - volQuad +  0.42755  solQuad =0


T1 : volTet-0.68 solTet + 1.88718 dihTet-1.54551 c > 0
T2 : volTet-0.68 solTet + 0.90746 dihTet-0.706725 c > 0
T3 : volTet-0.68 solTet + 0.46654 dihTet-0.329233 c > 0
T4 : volTet-0.55889 solTet-0 dihTet + 0.0736486 c > 0
T5 : volTet-0.63214 solTet-0 dihTet + 0.13034 c > 0
T6 : volTet-0.73256 solTet-0 dihTet + 0.23591 c > 0
T7 : volTet-0.89346 solTet-0 dihTet + 0.40505 c > 0
T8 : volTet-0.3 solTet-0.5734 dihTet + 0.978221 c > 0
T9 : volTet-0.3 solTet-0.03668 dihTet-0.024767 c > 0
T10 : volTet-0.3 solTet + 0.04165 dihTet-0.121199 c > 0
T11 : volTet-0.3 solTet + 0.1234 dihTet-0.209279 c > 0
T12 : volTet-0.42755 solTet-0.11509 dihTet + 0.171859 c > 0
T13 : volTet-0.42755 solTet-0.04078 dihTet + 0.050713 c > 0
T14 : volTet-0.42755 solTet + 0.11031 dihTet-0.135633 c > 0
T15 : volTet-0.42755 solTet + 0.13091 dihTet-0.157363 c > 0
T16 : volTet-0.55792 solTet-0.21394 dihTet + 0.417998 c > 0
T17 : volTet-0.55792 solTet-0.0068 dihTet + 0.081902 c > 0
T18 : volTet-0.55792 solTet + 0.0184 dihTet + 0.051224 c > 0
T19 : volTet-0.55792 solTet + 0.24335 dihTet-0.193993 c > 0
T20 : volTet-0.68 solTet-0.30651 dihTet + 0.648496 c > 0
T21 : volTet-0.68 solTet-0.06965 dihTet + 0.278 c > 0
T22 : volTet-0.68 solTet + 0.0172 dihTet + 0.15662 c > 0
T23 : volTet-0.68 solTet + 0.41812 dihTet-0.287778 c > 0
T24 : volTet-0.64934 solTet-0 dihTet + 0.14843 c > 0
T25 : volTet-0.6196 solTet-0 dihTet + 0.118 c > 0
T26 : volTet-0.58402 solTet-0 dihTet + 0.09029 c > 0
T27 : volTet-0.25181 solTet-0 dihTet-0.096509 c > 0
T28 : volTet-0.00909 solTet-0 dihTet-0.199559 c > 0
T29 : volTet + 0.93877 solTet-0 dihTet-0.537892 c > 0
T30 : volTet + 0.93877 solTet-0.20211 dihTet-0.27313 c > 0
T31 : volTet + 0.93877 solTet + 0.63517 dihTet-1.20578 c > 0
T32 : volTet + 1.93877 solTet-0 dihTet-0.854804 c > 0
T33 : volTet + 1.93877 solTet-0.20211 dihTet-0.621886 c > 0
T34 : volTet + 1.93877 solTet + 0.63517 dihTet-1.57648 c > 0
T35 : volTet-0.42775 solTet-0 dihTet + 0.000111 c > 0
T36 : volTet-0.55792 solTet-0 dihTet + 0.073037 c > 0
T37 : volTet-0 solTet-0.07853 dihTet-0.08865 c > 0
T38 : volTet-0 solTet-0.00339 dihTet-0.198693 c > 0
T39 : volTet-0 solTet + 0.18199 dihTet-0.39667 c > 0
T40 : volTet-0.42755 solTet-0.2 dihTet + 0.332061 c > 0
T41 : volTet-0.3 solTet-0.36373 dihTet + 0.58263 c > 0
T42 : volTet-0.3 solTet + 0.20583 dihTet-0.279851 c > 0
T43 : volTet-0.3 solTet + 0.40035 dihTet-0.446389 c > 0
T44 : volTet-0.3 solTet + 0.83259 dihTet-0.81645 c > 0
T45 : volTet-0.42755 solTet-0.51838 dihTet + 0.932759 c > 0
T46 : volTet-0.42755 solTet + 0.29344 dihTet-0.296513 c > 0
T47 : volTet-0.42755 solTet + 0.57056 dihTet-0.533768 c > 0
T48 : volTet-0.42755 solTet + 1.18656 dihTet-1.06115 c > 0
T49 : volTet-0.55792 solTet-0.67644 dihTet + 1.29062 c > 0
T50 : volTet-0.55792 solTet + 0.38278 dihTet-0.313365 c > 0
T51 : volTet-0.55792 solTet + 0.74454 dihTet-0.623085 c > 0
T52 : volTet-0.55792 solTet + 1.54837 dihTet-1.31128 c > 0
T53 : volTet-0.68 solTet-0.82445 dihTet + 1.62571 c > 0


Q1 : volQuad-0.42775 solQuad-0.15098 dihQuad + 0.367 c > 0
Q2 : volQuad-0.42775 solQuad-0.09098 dihQuad + 0.1737 c > 0
Q3 : volQuad-0.42775 solQuad-0 dihQuad-0.031 c > 0
Q4 : volQuad-0.42775 solQuad + 0.18519 dihQuad-0.3183 c > 0
Q5 : volQuad-0.42775 solQuad + 0.20622 dihQuad-0.3438 c > 0
Q6 : volQuad-0.55792 solQuad-0.30124 dihQuad + 1.0173 c > 0
Q7 : volQuad-0.55792 solQuad-0.02921 dihQuad + 0.2101 c > 0
Q8 : volQuad-0.55792 solQuad-0 dihQuad + 0.1393 c > 0
Q9 : volQuad-0.55792 solQuad + 0.05947 dihQuad + 0.047 c > 0
Q10 : volQuad-0.55792 solQuad + 0.39938 dihQuad-0.4305 c > 0
Q11 : volQuad-0.55792 solQuad + 2.5021 dihQuad-2.8976 c > 0
Q12 : volQuad-0.68 solQuad-0.44194 dihQuad + 1.6264 c > 0
Q13 : volQuad-0.68 solQuad-0.10957 dihQuad + 0.6753 c > 0
Q14 : volQuad-0.68 solQuad-0 dihQuad + 0.4029 c > 0
Q15 : volQuad-0.68 solQuad + 0.86096 dihQuad-0.8262 c > 0
Q16 : volQuad-0.68 solQuad + 2.44439 dihQuad-2.7002 c > 0
Q17 : volQuad-0.3 solQuad-0.12596 dihQuad + 0.1279 c > 0
Q18 : volQuad-0.3 solQuad-0.02576 dihQuad-0.132 c > 0
Q19 : volQuad-0.3 solQuad-0 dihQuad-0.1945 c > 0
Q20 : volQuad-0.3 solQuad + 0.037 dihQuad-0.248 c > 0
Q21 : volQuad-0.3 solQuad + 0.22476 dihQuad-0.5111 c > 0
Q22 : volQuad-0.3 solQuad + 2.31852 dihQuad-2.9625 c > 0
Q23 : volQuad-0 solQuad-0.23227 dihQuad + 0.1042 c > 0
Q24 : volQuad-0 solQuad + 0.07448 dihQuad-0.5591 c > 0
Q25 : volQuad-0 solQuad + 0.22019 dihQuad-0.7627 c > 0
Q26 : volQuad-0 solQuad + 0.80927 dihQuad-1.5048 c > 0
Q27 : volQuad-0 solQuad + 5.8438 dihQuad-7.3468 c > 0













BOUNDS


 c=1

 0 <  squanderTet 
 0 <  squanderQuad 
 0.202804 < volTet 
 0.455149  < volQuad 
 0.315696 < solTet < 1.051232
 0.731937 < solQuad < 2.85860
 0.856147 < dihTet < 1.886730
 1.15242 < dihQuad < 3.25887


END
